  1   0   0   0   0   0   0   0   0   0   0   0   0   0   0   0   0   0   0   0   0   0   0   0   0   0   0   0   0   0   0   0   0   0   0   0   0   0   0   0   0   0   0   0   0   0   0   0   0   0   0   0   0   0   0   0   0   0   0   0   0   0   0   0   0   0   0   0   0   0   0   0   0   0   0   0   0   0   0   0   0   0   0   0   0   0   0   0   0   0   0   0   0   0   0   0   0   0   0   0   0   0   0   0   0   0   0   0   0   0   0   0   0   0   0   0   0   0   0   0   0   0   0   0   0   0   0   0   0   0   0   0   0   0   0   0   0   0   0   0   0   0   0   0   0   0   0   0   0   0   0   0   0   0   0   0   0   0   0   0   0   0   0   0   0   0   0   0   0   0   0   0   0   0   0   0   0   0   0   0   0   0   0   0   0   0   0   0   0   0   0   0   0   0   0   0   0   0   0   0   0   0   0   0   0   0   0   0   0   0   0   0   0   0   0   0   0   0   0   0   0   0   0   0   0   0   0   0   0   0   0   0   0   0   0   0   0   0   0   0   0   0   0   0   0   0   0   0   0   0   0   0   0   0   0   0   0   0   0   0   0   0   0   0   0   0   0   0   0   0   0   0   0   0   0   0   0   0   0   0   0   0   0   0   0   0   0   0   0   0   0   0   0   0   0   0   0   0   0   0   0   0   0   0   0   0   0   0   0   0   0   0   0   0   0   0   0   0   0   0   0   0   0   0   0   0   0   0   0   0   0   0   0   0   0   0   0   0   0   0   0   0   0   0   0   0   0   0   0   0   0   0   0   0   0   0   0   0   0   0   0   0   0   0   0   0   0   0   0   0   0   0   0   0   0   0   0   0   0   0   0   0   0   0   0   0   0   0   0   0   0   0   0   0   0   0   0   0   0   0   0   0   0   0   0   0   0   0   0   0   0   0   0   0   0   0   0   0   0   0   0   0   0   0   0   0   0   0   0   0   0   0   0   0   0   0   0   0   0   0   0   0   0   0   0   0   0   0   0   0   0   0   0   0   0   0   0   0   0   0   0   0   0   0   0   0   0   0   0   0   0   0   0   0   0   0   0   0   0   0   0   0   0   0   0   0   0   0   0   0   0   0   0   0   0   0   0   0   0   0   0   0   0   0   0   0   0   0   0   0   0   0   0   0   0   0   0   0   0   0   0   0   0   0   0   0   0   0   0   0   0   0   0   0   0   0   0   0   0   0   0   0   0   0   0   0   0   0   0   0   0   0   0   0   0   0   0   0   0   0   0   0   0   0   0   0   0   0   0   0   0   0   0   0   0   0   0   0   0   0   0   0   0   0   0   0   0   0   0   0   0   0   0   0   0   0   0   0   0   0   0   0   0   0   0   0   0   0   0   0   0   0   0   0   0   0   0   0   0   0   0   0   0   0   0   0   0   0   0   0   0   0   0   0   0   0   0   0   0   0   0   0   0   0   0   0   0   0   0   0   0   0   0   0   0   0   0   0   0   0   0   0   0   0   0   0   0   0   0   0   0   0   0   0   0   0   0   0   0   0   0   0   0   0   0   0   0   0   0   0   0   0   0   0   0   0   0   0   0   0   0   0   0   0   0   0   0   0   0   0   0   0   0   0   0   0   0   0   0   0   0   0   0   0   0   0   0   0   0   0   0   0   0   0   0   0   0   0   0   0   0   0   0   0   0   0   0   0   0   0   0   0   0   0   0   0   0   0   0   0   0   0   0   0   0   0   0   0   0   0   0   0   0   0   0   0   0   0   0   0   0   0   0   0   0   0   0   0   0   0   0   0   0   0   0   0   0   0   0   0   0   0   0   0   0   0   0   0   0   0   0   0   0   0   0   0   0   0   0   0   0   0   0   0   0   0   0   0   0   0   0   0   0   0   0   0   0   0   0   0   0   0   0   0   0   0   0   0   0   0   0   0   0   0   0   0   0   0   0   0   0   0   0   0   0   0   0   0   0   0   0   0   0   0   0   0   0   0   0   0   0   0   0   0   0   0   0   0   0   0   0   0   0   0   0   0   0   0   0   0   0   0   0   0   0   0   0   0   0   0   0   0   0   0   0   0   0   0   0   0   0   0   0   0   0   0   0   0   0   0   0   0   0   0   0   0   0   0   0   0   0   0   0   0   0   0   0   0   0   0   0   0   0   0   0   0   0   0   0   0   0   0   0   0   0   0   0   0   0   0   0   0   0   0   0   0   0   0   0   0   0   0   0   0   0   0   0   0   0   0   0   0   0   0   0   0   0   0   0   0 
REMAINING SPACE:      131
ACCUMULATED PRIORITY: 100
EXECUTION TIME:       0.000143000
QTY PRI VAL
[1] 100 369
[0] 100 359
[0] 100 254
[0] 100 373
[0] 100 218
[0] 100 324
[0] 100 280
[0] 100 215
[0] 100 411
[0] 100 408
[0] 100 436
[0] 100 201
[0] 100 487
[0] 100 395
[0] 100 400
[0]  99 308
[0]  99 294
[0]  99 260
[0]  99 238
[0]  99 395
[0]  99 465
[0]  99 426
[0]  99 399
[0]  99 317
[0]  99 282
[0]  99 353
[0]  99 471
[0]  99 201
[0]  98 461
[0]  98 206
[0]  98 248
[0]  98 293
[0]  98 419
[0]  98 433
[0]  98 440
[0]  98 281
[0]  98 240
[0]  98 308
[0]  98 449
[0]  98 358
[0]  98 347
[0]  97 499
[0]  97 359
[0]  97 348
[0]  97 372
[0]  97 384
[0]  97 494
[0]  97 311
[0]  97 394
[0]  97 417
[0]  97 492
[0]  97 227
[0]  97 492
[0]  97 230
[0]  97 442
[0]  97 200
[0]  96 395
[0]  96 209
[0]  96 334
[0]  96 464
[0]  96 452
[0]  96 213
[0]  96 323
[0]  96 451
[0]  96 315
[0]  96 255
[0]  96 282
[0]  96 441
[0]  96 495
[0]  95 238
[0]  95 227
[0]  95 447
[0]  95 322
[0]  95 401
[0]  95 486
[0]  95 440
[0]  95 457
[0]  95 431
[0]  95 478
[0]  95 490
[0]  95 445
[0]  95 479
[0]  95 442
[0]  95 282
[0]  94 389
[0]  94 404
[0]  94 470
[0]  94 345
[0]  94 483
[0]  94 302
[0]  94 265
[0]  94 299
[0]  94 225
[0]  93 385
[0]  93 290
[0]  93 483
[0]  93 475
[0]  93 321
[0]  93 246
[0]  93 256
[0]  93 212
[0]  93 372
[0]  92 493
[0]  92 270
[0]  92 286
[0]  92 253
[0]  92 254
[0]  92 479
[0]  92 373
[0]  92 207
[0]  92 289
[0]  92 219
[0]  92 470
[0]  91 326
[0]  91 495
[0]  91 310
[0]  90 350
[0]  90 406
[0]  90 474
[0]  90 219
[0]  90 444
[0]  90 224
[0]  90 318
[0]  90 470
[0]  90 316
[0]  90 209
[0]  90 353
[0]  89 200
[0]  89 415
[0]  89 370
[0]  89 277
[0]  89 410
[0]  89 225
[0]  89 226
[0]  89 322
[0]  89 369
[0]  89 249
[0]  89 328
[0]  89 317
[0]  89 347
[0]  89 400
[0]  89 388
[0]  89 301
[0]  88 474
[0]  88 232
[0]  88 366
[0]  88 214
[0]  88 289
[0]  88 231
[0]  88 460
[0]  88 220
[0]  88 452
[0]  88 355
[0]  88 342
[0]  88 475
[0]  88 414
[0]  87 353
[0]  87 424
[0]  87 208
[0]  87 329
[0]  87 357
[0]  87 353
[0]  87 403
[0]  87 440
[0]  87 242
[0]  87 259
[0]  87 263
[0]  87 433
[0]  87 430
[0]  87 492
[0]  87 487
[0]  86 242
[0]  86 232
[0]  86 310
[0]  86 466
[0]  86 372
[0]  86 355
[0]  86 421
[0]  86 333
[0]  86 226
[0]  86 218
[0]  86 495
[0]  85 259
[0]  85 383
[0]  85 259
[0]  85 244
[0]  85 253
[0]  85 360
[0]  85 428
[0]  85 345
[0]  85 376
[0]  85 235
[0]  85 317
[0]  85 500
[0]  85 459
[0]  84 334
[0]  84 262
[0]  84 227
[0]  84 384
[0]  84 347
[0]  84 343
[0]  84 276
[0]  83 256
[0]  83 303
[0]  83 363
[0]  83 214
[0]  83 262
[0]  83 407
[0]  83 363
[0]  83 332
[0]  83 454
[0]  83 250
[0]  82 325
[0]  82 303
[0]  82 416
[0]  82 473
[0]  82 430
[0]  82 396
[0]  82 496
[0]  82 490
[0]  81 461
[0]  81 306
[0]  81 498
[0]  81 496
[0]  81 383
[0]  81 455
[0]  81 338
[0]  81 260
[0]  80 456
[0]  80 367
[0]  80 416
[0]  80 339
[0]  80 456
[0]  80 219
[0]  80 377
[0]  80 214
[0]  79 347
[0]  79 468
[0]  79 228
[0]  79 466
[0]  79 244
[0]  79 396
[0]  79 334
[0]  79 470
[0]  79 334
[0]  79 385
[0]  79 428
[0]  79 222
[0]  79 408
[0]  78 324
[0]  78 271
[0]  78 245
[0]  78 251
[0]  78 418
[0]  78 467
[0]  78 219
[0]  77 336
[0]  77 470
[0]  77 288
[0]  77 201
[0]  77 243
[0]  77 372
[0]  77 336
[0]  77 261
[0]  77 316
[0]  76 231
[0]  76 415
[0]  76 342
[0]  76 297
[0]  76 415
[0]  76 374
[0]  76 359
[0]  76 323
[0]  76 309
[0]  76 409
[0]  76 246
[0]  75 408
[0]  75 388
[0]  75 403
[0]  75 350
[0]  75 406
[0]  75 360
[0]  75 214
[0]  75 329
[0]  75 475
[0]  75 314
[0]  75 253
[0]  75 279
[0]  75 301
[0]  75 273
[0]  75 341
[0]  75 261
[0]  74 457
[0]  74 456
[0]  74 311
[0]  74 231
[0]  74 486
[0]  73 494
[0]  73 404
[0]  73 275
[0]  73 271
[0]  73 391
[0]  73 288
[0]  73 492
[0]  73 428
[0]  73 295
[0]  73 314
[0]  73 346
[0]  73 356
[0]  72 395
[0]  72 201
[0]  72 459
[0]  72 339
[0]  72 442
[0]  72 323
[0]  72 441
[0]  72 294
[0]  72 456
[0]  72 307
[0]  72 251
[0]  72 250
[0]  72 358
[0]  71 208
[0]  71 279
[0]  71 235
[0]  71 380
[0]  71 397
[0]  71 332
[0]  71 411
[0]  71 448
[0]  70 254
[0]  70 445
[0]  70 390
[0]  70 343
[0]  70 476
[0]  70 470
[0]  70 396
[0]  70 421
[0]  70 482
[0]  70 496
[0]  70 268
[0]  69 339
[0]  69 491
[0]  69 451
[0]  69 366
[0]  69 220
[0]  69 354
[0]  69 280
[0]  69 325
[0]  68 394
[0]  68 304
[0]  68 406
[0]  68 262
[0]  68 486
[0]  68 296
[0]  68 267
[0]  68 252
[0]  68 253
[0]  68 490
[0]  68 417
[0]  68 376
[0]  68 396
[0]  68 396
[0]  67 312
[0]  67 452
[0]  67 275
[0]  67 292
[0]  67 460
[0]  67 285
[0]  67 308
[0]  67 209
[0]  67 464
[0]  67 429
[0]  67 448
[0]  67 238
[0]  67 377
[0]  66 390
[0]  66 462
[0]  66 323
[0]  66 238
[0]  66 411
[0]  66 392
[0]  66 255
[0]  66 400
[0]  65 339
[0]  65 332
[0]  65 272
[0]  65 439
[0]  65 399
[0]  65 356
[0]  65 311
[0]  65 217
[0]  65 205
[0]  64 331
[0]  64 431
[0]  64 485
[0]  64 438
[0]  64 258
[0]  64 447
[0]  64 243
[0]  64 469
[0]  64 341
[0]  63 346
[0]  63 398
[0]  63 476
[0]  63 375
[0]  63 216
[0]  63 411
[0]  63 388
[0]  63 237
[0]  63 417
[0]  63 301
[0]  63 390
[0]  63 262
[0]  62 375
[0]  62 212
[0]  62 347
[0]  62 239
[0]  62 440
[0]  61 295
[0]  61 293
[0]  61 263
[0]  61 294
[0]  61 293
[0]  61 369
[0]  61 338
[0]  61 454
[0]  61 442
[0]  61 343
[0]  61 314
[0]  61 397
[0]  61 234
[0]  61 376
[0]  61 372
[0]  60 437
[0]  60 264
[0]  60 490
[0]  60 441
[0]  60 208
[0]  60 302
[0]  60 333
[0]  60 285
[0]  59 280
[0]  59 310
[0]  59 349
[0]  59 393
[0]  59 479
[0]  59 498
[0]  59 238
[0]  58 353
[0]  58 273
[0]  58 426
[0]  58 209
[0]  58 471
[0]  58 420
[0]  58 225
[0]  58 322
[0]  58 376
[0]  58 405
[0]  58 387
[0]  57 243
[0]  57 307
[0]  57 273
[0]  57 346
[0]  57 222
[0]  57 492
[0]  57 332
[0]  57 432
[0]  57 428
[0]  57 253
[0]  57 268
[0]  57 454
[0]  57 317
[0]  56 285
[0]  56 209
[0]  56 346
[0]  56 211
[0]  56 322
[0]  56 322
[0]  56 327
[0]  56 247
[0]  56 479
[0]  56 200
[0]  55 223
[0]  55 379
[0]  55 247
[0]  55 394
[0]  55 366
[0]  55 270
[0]  55 336
[0]  55 333
[0]  55 397
[0]  54 298
[0]  54 394
[0]  54 279
[0]  54 398
[0]  54 394
[0]  54 234
[0]  54 338
[0]  54 387
[0]  54 416
[0]  54 338
[0]  54 214
[0]  54 386
[0]  54 229
[0]  54 479
[0]  54 303
[0]  54 309
[0]  54 424
[0]  54 467
[0]  54 313
[0]  54 428
[0]  53 359
[0]  53 412
[0]  53 491
[0]  53 374
[0]  53 442
[0]  53 351
[0]  53 322
[0]  52 426
[0]  52 297
[0]  52 333
[0]  52 213
[0]  52 482
[0]  51 442
[0]  51 363
[0]  51 421
[0]  51 261
[0]  51 450
[0]  51 375
[0]  51 483
[0]  51 455
[0]  51 336
[0]  51 281
[0]  51 401
[0]  51 499
[0]  50 378
[0]  50 383
[0]  50 361
[0]  50 415
[0]  50 420
[0]  50 494
[0]  50 392
[0]  50 230
[0]  50 356
[0]  50 421
[0]  50 436
[0]  50 453
[0]  49 307
[0]  49 443
[0]  49 217
[0]  49 221
[0]  49 466
[0]  49 410
[0]  49 248
[0]  49 474
[0]  49 339
[0]  49 263
[0]  48 308
[0]  48 365
[0]  48 411
[0]  48 444
[0]  48 361
[0]  48 328
[0]  48 332
[0]  48 375
[0]  48 261
[0]  48 206
[0]  48 348
[0]  48 201
[0]  48 355
[0]  47 250
[0]  47 471
[0]  47 401
[0]  47 243
[0]  47 410
[0]  47 387
[0]  47 207
[0]  47 316
[0]  47 305
[0]  47 401
[0]  46 480
[0]  46 411
[0]  46 287
[0]  46 285
[0]  46 361
[0]  45 412
[0]  45 482
[0]  45 424
[0]  45 457
[0]  45 453
[0]  45 458
[0]  45 277
[0]  45 208
[0]  45 375
[0]  45 310
[0]  45 402
[0]  45 307
[0]  45 410
[0]  45 466
[0]  45 228
[0]  45 233
[0]  45 255
[0]  45 208
[0]  45 400
[0]  45 379
[0]  45 446
[0]  45 319
[0]  44 334
[0]  44 274
[0]  44 281
[0]  44 203
[0]  44 454
[0]  44 274
[0]  44 437
[0]  43 335
[0]  43 279
[0]  43 385
[0]  43 474
[0]  43 314
[0]  43 205
[0]  43 457
[0]  43 297
[0]  43 323
[0]  43 384
[0]  43 415
[0]  43 339
[0]  43 362
[0]  43 356
[0]  42 332
[0]  42 332
[0]  42 210
[0]  42 273
[0]  42 304
[0]  42 409
[0]  42 428
[0]  42 217
[0]  42 205
[0]  42 261
[0]  42 381
[0]  42 326
[0]  42 274
[0]  42 440
[0]  42 442
[0]  41 408
[0]  41 285
[0]  41 368
[0]  41 302
[0]  41 408
[0]  41 464
[0]  41 343
[0]  41 212
[0]  41 297
[0]  40 337
[0]  40 328
[0]  40 435
[0]  40 445
[0]  40 451
[0]  40 410
[0]  40 314
[0]  40 207
[0]  40 444
[0]  39 490
[0]  39 292
[0]  39 329
[0]  39 326
[0]  39 390
[0]  39 432
[0]  39 353
[0]  39 312
[0]  39 200
[0]  39 276
[0]  39 425
[0]  38 281
[0]  38 270
[0]  38 345
[0]  38 328
[0]  38 323
[0]  38 242
[0]  38 440
[0]  38 470
[0]  37 434
[0]  37 456
[0]  37 209
[0]  37 462
[0]  37 425
[0]  37 330
[0]  37 306
[0]  36 272
[0]  36 231
[0]  36 245
[0]  36 272
[0]  36 376
[0]  36 500
[0]  36 353
[0]  36 414
[0]  36 335
[0]  36 307
[0]  35 242
[0]  35 405
[0]  35 470
[0]  35 341
[0]  35 449
[0]  35 334
[0]  35 347
[0]  35 201
[0]  35 258
[0]  35 330
[0]  34 434
[0]  34 201
[0]  34 379
[0]  34 406
[0]  34 483
[0]  34 278
[0]  34 306
[0]  34 392
[0]  34 319
[0]  34 473
[0]  34 336
[0]  34 325
[0]  34 478
[0]  33 468
[0]  33 357
[0]  33 316
[0]  33 227
[0]  32 254
[0]  32 285
[0]  32 262
[0]  32 209
[0]  32 342
[0]  32 446
[0]  32 319
[0]  32 211
[0]  32 413
[0]  32 221
[0]  31 257
[0]  31 387
[0]  31 486
[0]  31 231
[0]  31 395
[0]  31 211
[0]  31 340
[0]  31 287
[0]  31 382
[0]  31 286
[0]  31 472
[0]  31 313
[0]  31 366
[0]  31 325
[0]  30 302
[0]  30 336
[0]  30 273
[0]  30 298
[0]  30 466
[0]  29 460
[0]  29 484
[0]  29 405
[0]  29 336
[0]  29 338
[0]  29 494
[0]  29 412
[0]  29 404
[0]  29 485
[0]  29 309
[0]  29 253
[0]  29 494
[0]  29 288
[0]  28 400
[0]  28 273
[0]  28 420
[0]  28 268
[0]  28 333
[0]  28 251
[0]  28 421
[0]  28 381
[0]  28 289
[0]  28 215
[0]  28 469
[0]  28 482
[0]  27 460
[0]  27 228
[0]  27 347
[0]  27 283
[0]  27 469
[0]  27 458
[0]  27 446
[0]  27 273
[0]  27 404
[0]  27 465
[0]  26 207
[0]  26 330
[0]  26 449
[0]  26 437
[0]  26 262
[0]  26 400
[0]  26 343
[0]  26 308
[0]  26 464
[0]  26 372
[0]  25 318
[0]  25 391
[0]  25 348
[0]  25 486
[0]  25 200
[0]  25 370
[0]  25 400
[0]  25 341
[0]  25 222
[0]  25 221
[0]  25 211
[0]  25 409
[0]  25 471
[0]  25 464
[0]  25 458
[0]  25 372
[0]  25 463
[0]  25 385
[0]  25 284
[0]  24 402
[0]  24 274
[0]  24 393
[0]  24 379
[0]  24 340
[0]  24 457
[0]  24 484
[0]  24 443
[0]  24 330
[0]  24 202
[0]  24 461
[0]  23 324
[0]  23 498
[0]  23 488
[0]  23 337
[0]  23 323
[0]  23 263
[0]  23 497
[0]  23 483
[0]  23 452
[0]  23 489
[0]  23 490
[0]  23 325
[0]  23 298
[0]  22 225
[0]  22 274
[0]  22 407
[0]  22 368
[0]  22 221
[0]  22 464
[0]  22 340
[0]  22 454
[0]  22 278
[0]  22 357
[0]  22 365
[0]  22 483
[0]  22 448
[0]  21 283
[0]  21 211
[0]  21 287
[0]  21 377
[0]  21 288
[0]  21 363
[0]  21 233
[0]  21 417
[0]  21 466
[0]  21 356
[0]  20 410
[0]  20 484
[0]  20 396
[0]  20 413
[0]  20 355
[0]  20 406
[0]  20 203
[0]  20 262
[0]  20 232
[0]  19 338
[0]  19 276
[0]  19 436
[0]  19 461
[0]  19 246
[0]  19 469
[0]  19 487
[0]  19 425
[0]  19 352
[0]  19 452
[0]  19 384
[0]  19 279
[0]  18 455
[0]  18 362
[0]  18 420
[0]  18 228
[0]  18 499
[0]  18 320
[0]  18 248
[0]  18 416
[0]  18 449
[0]  18 378
[0]  18 395
[0]  18 492
[0]  18 360
[0]  18 245
[0]  18 281
[0]  18 433
[0]  17 290
[0]  17 303
[0]  17 440
[0]  17 233
[0]  17 438
[0]  17 307
[0]  17 213
[0]  17 266
[0]  17 206
[0]  17 231
[0]  17 268
[0]  16 293
[0]  16 411
[0]  16 463
[0]  16 216
[0]  16 214
[0]  16 457
[0]  16 401
[0]  16 451
[0]  16 401
[0]  16 405
[0]  16 416
[0]  16 489
[0]  16 262
[0]  16 489
[0]  16 393
[0]  16 203
[0]  16 382
[0]  15 318
[0]  15 454
[0]  15 433
[0]  15 285
[0]  15 476
[0]  15 335
[0]  15 260
[0]  15 225
[0]  15 451
[0]  15 439
[0]  15 307
[0]  14 447
[0]  14 371
[0]  14 233
[0]  14 376
[0]  14 330
[0]  14 372
[0]  14 285
[0]  14 485
[0]  14 372
[0]  14 335
[0]  14 214
[0]  14 492
[0]  14 358
[0]  13 246
[0]  13 204
[0]  13 410
[0]  13 327
[0]  13 307
[0]  13 478
[0]  13 233
[0]  13 388
[0]  12 315
[0]  12 423
[0]  12 206
[0]  12 389
[0]  12 357
[0]  12 291
[0]  12 476
[0]  12 332
[0]  12 234
[0]  12 476
[0]  12 475
[0]  11 461
[0]  11 221
[0]  11 424
[0]  11 224
[0]  11 317
[0]  11 379
[0]  11 439
[0]  11 305
[0]  11 371
[0]  11 335
[0]  11 324
[0]  11 373
[0]  11 472
[0]  11 306
[0]  10 469
[0]  10 408
[0]  10 326
[0]  10 431
[0]  10 413
[0]  10 405
[0]  10 356
[0]  10 358
[0]  10 251
[0]  10 405
[0]  10 318
[0]  10 226
[0]  10 339
